(declare-fun temp14106_2 () (_ BitVec 64))
(declare-fun temp14106_1 () (_ BitVec 64))
(declare-fun temp14106_3 () (_ BitVec 64))
(declare-fun var460169 () (_ BitVec 64))
(declare-fun temp14106_4 () (_ BitVec 64))
(declare-fun var460170 () (_ BitVec 64))
(declare-fun temp14106_5 () (_ BitVec 64))
(declare-fun var984886 () (_ BitVec 64))
(declare-fun var1183964 () (_ BitVec 64))
(declare-fun temp14106_6 () (_ BitVec 64))
(declare-fun temp14106_7 () (_ BitVec 64))
(declare-fun ARGNAME_n_NAMEEND () (_ BitVec 64))
(declare-fun var460297 () (_ BitVec 64))
(declare-fun temp14106_8 () (_ BitVec 64))
(declare-fun temp14106_9 () (_ BitVec 64))
(declare-fun ARGNAME_input_NAMEEND_DIM () (_ BitVec 64))
(declare-fun var1771499 () (_ BitVec 64))
(declare-fun temp14106_11 () (_ BitVec 64))
(declare-fun temp14106_10 () (_ BitVec 64))
(declare-fun var1837943 () (_ BitVec 64))
(declare-fun temp14106_12 () (_ BitVec 64))
(declare-fun var1904392 () (_ BitVec 64))
(declare-fun var1969937 () (_ BitVec 64))
(declare-fun temp14106_14 () (_ BitVec 64))
(declare-fun temp14106_13 () (_ BitVec 64))
(declare-fun temp14106_15 () (_ BitVec 64))
(declare-fun var2166519 () (_ BitVec 64))
(declare-fun temp14106_16 () (_ BitVec 64))
(declare-fun var1771560 () (_ BitVec 64))
(declare-fun temp14106_17 () (_ BitVec 64))
(declare-fun var1771602 () (_ BitVec 64))
(declare-fun var1771547 () (_ BitVec 64))
(declare-fun var1771546 () (_ BitVec 64))
(declare-fun temp14106_18 () (_ BitVec 64))
(declare-fun var1771551 () (_ BitVec 64))
(declare-fun temp14106_19 () (_ BitVec 64))
(declare-fun var1771553 () (_ BitVec 64))
(declare-fun temp14106_20 () (_ BitVec 64))
(declare-fun temp14106_21 () (_ BitVec 64))
(declare-fun var3017882 () (_ BitVec 64))
(declare-fun var3541198 () (_ BitVec 64))
(declare-fun temp14106_22 () (_ BitVec 64))
(declare-fun temp14106_23 () (_ BitVec 64))
(declare-fun var3541228 () (_ BitVec 64))
(declare-fun var3541275 () (_ BitVec 64))
(declare-fun var3541196 () (_ BitVec 64))
(declare-fun var460364 () (_ BitVec 64))
(declare-fun var460372 () (_ BitVec 64))
(declare-fun temp14106_24 () (_ BitVec 64))
(assert (= temp14106_2 #x0000000000000000))
(assert (= temp14106_1 temp14106_2))
(assert (= temp14106_3 #x0000000000000001))
(assert (= var460169 temp14106_3))
(assert (= temp14106_4 #x0000000000000001))
(assert (= var460170 temp14106_4))
(assert (= temp14106_5 #x0000000000000000))
(assert (= var984886 temp14106_5))
(assert (= var1183964 var984886))
(assert (= temp14106_6 #x0000000000000000))
(assert (= var1183964 temp14106_6))
(assert (= temp14106_7 #x0000000000000001))
(assert (= var460297
   (ite (bvslt ARGNAME_n_NAMEEND temp14106_7)
        #x0000000000000001
        #x0000000000000000)))
(assert (= temp14106_8 #x0000000000000000))
(assert (= var460297 temp14106_8))
(assert (= temp14106_9 #x0000000000000001))
(assert (= var1771499 (bvshl ARGNAME_input_NAMEEND_DIM temp14106_9)))
(assert (= temp14106_11 #x0000000000000000))
(assert (= temp14106_10 temp14106_11))
(assert (= var1837943 var1771499))
(assert (= temp14106_12 #x0000000000000005))
(assert (= var1904392 temp14106_12))
(assert (= var1969937 var1837943))
(assert (= temp14106_14 #x0000000000000000))
(assert (= temp14106_13 temp14106_14))
(assert (= temp14106_15 #x0000000000000000))
(assert (= var2166519 temp14106_15))
(assert (= temp14106_16 #x0000000000000000))
(assert (= var1771560 temp14106_16))
(assert (= temp14106_17 #x0000000000000001))
(assert (= var1771602 temp14106_17))
(assert (= var1771547 var1771602))
(assert (= var1771546 var1771547))
(assert (= temp14106_18 #x0000000000000001))
(assert (= var1771551 (bvand var1771546 temp14106_18)))
(assert (= temp14106_19 #x0000000000000000))
(assert (= var1771553
   (ite (= var1771551 temp14106_19) #x0000000000000001 #x0000000000000000)))
(assert (= temp14106_20 #x0000000000000000))
(assert (= var1771553 temp14106_20))
(assert (= temp14106_21 #x0000000000000000))
(assert (= var3017882 temp14106_21))
(assert (= var3541198 var460169))
(assert (= temp14106_22 #x0000000000000000))
(assert (= temp14106_23 #x0000000000000002))
(assert (= var3541228 (ite (= var3541198 #x0000000000000001) temp14106_22 temp14106_23)))
(assert (= var3541275 var3541228))
(assert (= var3541196 var3541275))
(assert (= var460364 var3541196))
(assert (= var460372 var460364))
(assert (= temp14106_24 #x0000000000000001))
(assert (= var460169 temp14106_24))
(model-add temp14106_2 () (_ BitVec 64) #x0000000000000000)
(model-add temp14106_1 () (_ BitVec 64) #x0000000000000000)
(model-add temp14106_3 () (_ BitVec 64) #x0000000000000001)
(model-add var460169 () (_ BitVec 64) #x0000000000000001)
(model-add temp14106_4 () (_ BitVec 64) #x0000000000000001)
(model-add var460170 () (_ BitVec 64) #x0000000000000001)
(model-add temp14106_5 () (_ BitVec 64) #x0000000000000000)
(model-add var984886 () (_ BitVec 64) #x0000000000000000)
(model-add var1183964 () (_ BitVec 64) #x0000000000000000)
(model-add temp14106_6 () (_ BitVec 64) #x0000000000000000)




